========================================================== 
File name: C:\DEGR\assets\definitions\MSRCPSP_Gen\200_10_64_10_C.def
Creation date: Wed May 03 10:47:12 CEST 2023
Website: http://imopse.ii.pwr.edu.pl/ 
Reference: 
Myszkowski P. B., Skowronski M. E., Olech L., Oslizlo K., 
Hybrid Ant Colony Optimization in solving Multi-Skill Resource-Constrained Project Scheduling Problem, 
Soft Computing, DOI: DOI 10.1007/s00500-014-1455-x 
========================================================== 
General characteristics: 
Tasks: 200
Resources: 10
Precedence relations: 64
Number of skill types: 10
========================================================== 
ResourceID 	 Salary 	 Skills 
1	 	 	68.5	 	 Q9: 3 	  Q0: 2 	  Q1: 1 	 
2	 	 	62.4	 	 Q1: 1 	  Q2: 2 	  Q4: 2 	  Q3: 1 	  Q8: 2 	 
3	 	 	20.4	 	 Q5: 2 	 
4	 	 	68.1	 	 Q4: 3 	 
5	 	 	94.0	 	 Q2: 2 	  Q5: 0 	  Q4: 2 	  Q0: 1 	  Q3: 2 	 
6	 	 	92.7	 	 Q2: 3 	  Q7: 1 	  Q6: 1 	  Q1: 3 	  Q3: 2 	 
7	 	 	89.1	 	 Q9: 0 	  Q6: 3 	  Q8: 2 	  Q3: 0 	  Q7: 1 	  Q5: 3 	 
8	 	 	52.2	 	 Q4: 1 	  Q1: 2 	  Q9: 3 	  Q7: 3 	  Q5: 0 	 
9	 	 	20.1	 	 Q1: 3 	  Q4: 0 	  Q0: 1 	  Q9: 0 	  Q2: 0 	  Q5: 3 	  Q8: 1 	  Q7: 3 	  Q3: 0 	 
10	 	 	69.5	 	 Q2: 3 	  Q1: 3 	  Q0: 2 	 
========================================================== 
TaskID 	 Duration 	 Skill 	 Predecessor IDs 
1	38	Q2:	0
2	27	Q9:	3
3	24	Q5:	3
4	10	Q2:	3
5	24	Q8:	2
6	14	Q4:	3
7	28	Q4:	0
8	30	Q6:	3
9	39	Q9:	0
10	27	Q5:	2
11	39	Q3:	0
12	40	Q1:	3
13	21	Q1:	1
14	34	Q6:	1
15	20	Q6:	1
16	23	Q3:	0
17	25	Q2:	2
18	21	Q7:	1
19	14	Q3:	0
20	26	Q9:	0
21	29	Q1:	2
22	32	Q3:	1
23	29	Q3:	2
24	33	Q1:	2
25	27	Q0:	2
26	39	Q2:	0
27	27	Q4:	3
28	32	Q5:	0
29	27	Q1:	1
30	24	Q6:	3
31	15	Q1:	3
32	34	Q4:	3
33	16	Q9:	0	19
34	23	Q5:	2
35	23	Q2:	0
36	34	Q3:	1
37	17	Q9:	0
38	36	Q0:	2
39	16	Q3:	1
40	17	Q8:	1
41	24	Q1:	2
42	17	Q0:	1
43	39	Q2:	3
44	11	Q7:	3
45	29	Q8:	2
46	13	Q5:	0
47	9	Q6:	1	45
48	20	Q9:	0
49	19	Q3:	0
50	37	Q1:	1
51	35	Q7:	3
52	28	Q1:	3
53	9	Q8:	1
54	40	Q5:	2
55	19	Q7:	1	51
56	37	Q3:	1
57	32	Q8:	1
58	10	Q0:	1
59	11	Q1:	3
60	16	Q5:	3
61	34	Q0:	1
62	40	Q4:	3
63	22	Q4:	1
64	28	Q3:	1
65	10	Q9:	0
66	16	Q2:	2
67	18	Q5:	0
68	37	Q4:	3
69	33	Q6:	1
70	38	Q0:	2
71	20	Q6:	3
72	21	Q4:	1
73	37	Q7:	3	57
74	12	Q6:	1
75	13	Q2:	3	26	11	37
76	10	Q0:	1
77	40	Q4:	3
78	31	Q2:	3
79	10	Q2:	3
80	18	Q1:	2
81	16	Q4:	3
82	28	Q4:	3
83	17	Q5:	2
84	25	Q4:	0
85	10	Q2:	3
86	14	Q2:	2
87	32	Q4:	0	81	47
88	12	Q7:	3	63
89	40	Q8:	2
90	9	Q8:	1	8
91	39	Q3:	0
92	37	Q1:	2	21
93	28	Q7:	1
94	19	Q4:	1	52
95	13	Q6:	1	8
96	20	Q8:	2
97	24	Q0:	1
98	14	Q1:	1	58
99	33	Q8:	2
100	28	Q2:	0
101	15	Q3:	0
102	36	Q4:	2	83
103	36	Q2:	2
104	20	Q8:	1	37
105	38	Q3:	2
106	35	Q6:	1
107	23	Q6:	1	14
108	22	Q7:	3	42
109	33	Q4:	1
110	29	Q6:	3
111	38	Q5:	0	4
112	33	Q7:	3
113	12	Q3:	0
114	21	Q3:	1	88
115	30	Q5:	2	96
116	18	Q5:	3
117	14	Q1:	3	9	6	41
118	10	Q4:	1
119	40	Q7:	3
120	18	Q3:	1	83
121	25	Q4:	0
122	19	Q2:	3
123	14	Q3:	2
124	30	Q0:	2
125	23	Q1:	1
126	33	Q6:	3
127	40	Q5:	3
128	12	Q6:	1	48
129	22	Q2:	3
130	33	Q3:	0
131	31	Q4:	1	80
132	17	Q0:	2
133	25	Q2:	2
134	33	Q4:	1	75	8
135	33	Q4:	3
136	26	Q8:	1
137	21	Q7:	3
138	25	Q2:	3
139	35	Q2:	3	71
140	33	Q3:	1
141	17	Q6:	1
142	36	Q0:	1
143	26	Q0:	1
144	24	Q4:	3
145	36	Q6:	3
146	16	Q4:	2	58
147	17	Q1:	2	118
148	16	Q1:	3
149	13	Q4:	3
150	12	Q6:	1
151	22	Q0:	2	127
152	26	Q1:	2
153	37	Q5:	2	28
154	25	Q9:	3	7	39
155	13	Q5:	3	21	2
156	13	Q6:	3
157	16	Q5:	0
158	13	Q1:	2
159	29	Q4:	1
160	31	Q3:	1	136	73
161	35	Q8:	1	85	152	158	123
162	12	Q5:	2	94	67
163	11	Q5:	2	111
164	13	Q7:	1
165	22	Q4:	1
166	15	Q7:	1
167	29	Q5:	2
168	16	Q2:	0
169	30	Q2:	0
170	30	Q6:	3
171	21	Q7:	3
172	18	Q2:	0
173	37	Q8:	1
174	13	Q2:	0	21
175	23	Q6:	3	122
176	39	Q1:	2	8	48
177	35	Q4:	3
178	30	Q1:	1	171
179	31	Q5:	2
180	40	Q6:	1
181	38	Q2:	2	106	96
182	19	Q5:	0
183	14	Q6:	3	150
184	9	Q2:	2
185	24	Q1:	2	83
186	16	Q0:	2
187	19	Q7:	3
188	10	Q4:	2	71
189	27	Q5:	2	83
190	11	Q1:	3	158
191	19	Q5:	3
192	11	Q3:	1	31
193	27	Q6:	3
194	17	Q8:	2	129
195	31	Q2:	0
196	34	Q0:	1	109
197	25	Q4:	2
198	33	Q4:	1
199	13	Q1:	3
200	26	Q8:	1	32
========================================================== 